c description: Random 3-CNF over 24 variables and 102 clauses
c generator: CNFgen (0.9.2)
c copyright: (C) 2012-2022 Massimo Lauria <massimo.lauria@uniroma1.it>
c url: https://massimolauria.net/cnfgen
c command line: cnfgen --output CNF_4.28/24_bit_102_381.cnf randkcnf 3 24 102
c
p cnf 24 102
2 -5 -21 0
-3 -18 -19 0
1 21 24 0
5 -11 16 0
-16 -17 -24 0
-15 18 -22 0
-1 -5 24 0
-2 -5 10 0
5 -15 24 0
4 -9 -11 0
-7 -11 17 0
11 19 -21 0
-10 -13 24 0
-11 -21 22 0
11 18 22 0
-8 15 17 0
1 -20 23 0
12 -21 -23 0
2 -13 22 0
11 13 -16 0
-6 -11 -22 0
1 -16 24 0
-13 -20 -21 0
2 19 -23 0
-3 12 -24 0
-16 -18 24 0
-6 -11 23 0
3 -19 21 0
-12 20 21 0
-9 11 12 0
-4 -18 -20 0
-7 12 -24 0
-10 -12 -23 0
2 14 -22 0
14 18 -23 0
12 15 -21 0
-4 8 -17 0
2 -5 -7 0
16 -19 22 0
7 13 -22 0
-11 -13 -21 0
7 19 -20 0
2 17 23 0
-5 -9 -13 0
-1 -2 24 0
5 17 22 0
1 -8 23 0
17 -18 19 0
7 -13 -14 0
13 15 -16 0
-2 -10 17 0
3 -4 18 0
6 13 20 0
-2 11 14 0
2 7 13 0
-4 -12 13 0
4 -6 -19 0
-12 -13 17 0
-4 8 -12 0
-6 15 -21 0
7 -15 22 0
-8 -14 21 0
7 12 16 0
-9 11 -13 0
2 9 -20 0
1 2 15 0
-2 20 24 0
1 -19 20 0
10 -20 21 0
-5 10 18 0
-14 19 23 0
-16 20 23 0
-5 14 16 0
-6 17 20 0
11 13 23 0
1 -19 24 0
-4 8 -19 0
-7 15 22 0
-1 15 23 0
3 7 14 0
-3 4 23 0
6 11 -23 0
6 -18 21 0
-1 -12 -20 0
6 -11 -16 0
5 6 -12 0
5 -12 18 0
-4 13 16 0
-7 -11 -14 0
-6 15 -22 0
-3 4 17 0
-10 19 20 0
12 15 -20 0
1 -6 -12 0
-11 -15 21 0
-10 11 -15 0
-9 -14 22 0
2 3 -18 0
-9 -11 -21 0
-8 15 -18 0
-4 12 -22 0
-14 20 24 0
